WARNING: for repeatability, setting FPU to use double precision
============================[ Problem Statistics ]=============================
|                                                                             |
|  Number of variables:            50                                         |
|  Number of clauses:             218                                         |
|  Parse time:                   0.00 s                                       |
|                                                                             |
============================[ Search Statistics ]==============================
| Conflicts |          ORIGINAL         |          LEARNT          | Progress |
|           |    Vars  Clauses Literals |    Limit  Clauses Lit/Cl |          |
===============================================================================
===============================================================================
restarts              : 1
conflicts             : 64             (41967 /sec)
decisions             : 69             (0.00 % random) (45246 /sec)
propagations          : 1043           (683934 /sec)
conflict literals     : 225            (17.88 % deleted)
Memory used           : 20.00 MB
CPU time              : 0.001525 s

UNSATISFIABLE
